\ Model Routes
\ LP format - for model browsing. Use MPS format to capture full model detail.
Maximize
  1398.872608001596 R{0,0} + 3436.085122605044 R{0,1}
   + 3436.085122605044 R{0,2} - 127.7762031097757 R{0,3}
   + 735.9838119278181 R{0,4} + 2083.832608017188 R{0,5}
   + 2833.210890356016 R{0,6} + 517.4715437174965 R{0,7}
   + 407.5667938019368 R{0,8} + 121.73224890619 R{0,9}
   + 1942.682410208438 R{0,10} + 155.7127107527757 R{0,11}
   + 176.4231863580917 R{0,12} + 506.8965439979642 R{0,13}
   + 61.72858162997659 R{0,14} + 307.0838683520993 R{0,15}
   + 239.4962274478663 R{0,16} + 188.2470865627851 R{0,17}
   + 779.0901848941365 R{0,18} + 316.4604338788197 R{0,19}
   + 829.6700141057022 R{0,20} + 277.5126085978795 R{0,21}
   + 265.3719240503598 R{0,22} + 277.978857168808 R{0,23}
   + 264.3988398518829 R{0,24} + 650.0661638123238 R{0,25}
   + 1002.615046933545 R{0,26} + 225.2436188795198 R{0,27}
   + 392.0745794937966 R{0,28} + 1322.887105847333 R{0,29}
   + 379.4967826466515 R{0,30} + 282.1167702179799 R{0,31}
   + 2500.162372751333 R{0,32} + 1216.66919301997 R{1,0}
   + 2486.750921389854 R{1,1} + 3294.346020570721 R{1,2}
   - 200.856038906509 R{1,3} + 2301.604432403132 R{1,4}
   + 3220.32419874372 R{1,5} + 3131.378229932245 R{1,6}
   + 1357.806451906064 R{1,7} + 1487.337624425002 R{1,8}
   + 2093.072772173176 R{1,9} + 1540.464628720577 R{1,10}
   + 437.3938649543659 R{1,11} + 854.0676054956815 R{1,12}
   + 1072.788112068723 R{1,13} + 1841.774179961456 R{1,14}
   + 1254.842237965092 R{1,15} + 1388.167374428718 R{1,16}
   + 2223.999166122656 R{1,17} + 2951.232400922261 R{1,18}
   + 1189.769325277048 R{1,19} + 1115.033385948625 R{1,20}
   + 1219.727405805769 R{1,21} + 1451.136978946015 R{1,22}
   + 2211.127541006746 R{1,23} + 2010.61818056871 R{1,24}
   + 2231.18842975215 R{1,25} + 827.2078924808541 R{1,26}
   + 984.3665737438446 R{1,27} + 1960.998132950072 R{1,28}
   + 1883.022205659243 R{1,29} + 2791.201461891639 R{1,30}
   + 2007.220454037743 R{1,31} + 2029.535939327864 R{1,32}
   + 2213.891660063747 R{1,33} + 2485.019599305597 R{1,34}
   + 1937.922351743571 R{1,35} + 2799.062006875199 R{1,36}
   + 2199.54607985054 R{1,37} + 332.4570639692354 R{2,0}
   + 1639.390835067826 R{2,1} + 2685.61229030352 R{2,2}
   - 133.5200660505167 R{2,3} + 163.9300193568837 R{2,4}
   + 787.6933232932287 R{2,5} + 775.9469159584704 R{2,6}
   + 326.8044007707583 R{2,7} + 1133.450654952466 R{2,8}
   + 286.9898263934024 R{2,9} + 115.7910033660281 R{2,10}
   + 204.0390117288399 R{2,11} + 547.2582626388731 R{2,12}
   + 322.6224936262473 R{2,13} + 502.0354930684081 R{2,14}
   + 383.5596368694069 R{2,15} + 636.5733067724346 R{2,16}
   + 818.6164678752342 R{2,17} + 1123.999298887993 R{2,18}
   + 706.3272095154321 R{2,19} + 730.2667542953473 R{2,20}
   + 1158.776123690251 R{3,0} + 1181.618104114831 R{3,1}
   + 1706.890166754278 R{3,2} - 192.385172168201 R{3,3}
   + 50.44000758512189 R{3,4} + 3575.56827817777 R{3,5}
   + 3575.56827817777 R{3,6} + 1048.628563667504 R{3,7}
   + 586.4745289982166 R{3,8} + 2109.585892020032 R{3,9}
   + 425.4834469694617 R{3,10} + 2097.547657954279 R{3,11}
   + 2638.587573001598 R{3,12} + 2313.901222441645 R{3,13}
   + 1348.225851406394 R{3,14} + 1733.232731953031 R{3,15}
   + 1658.819550932762 R{3,16} + 2005.509829763556 R{3,17}
   + 2687.079017116604 R{3,18} + 2146.707627293706 R{3,19}
   + 2630.250293013053 R{3,20} + 1923.589483263349 R{3,21}
   + 1690.495791023152 R{3,22} + 978.0535731519876 R{3,23}
   + 1574.574292125794 R{3,24} + 2005.749276375144 R{3,25}
   + 1237.725280786291 R{3,26} + 1194.611600824574 R{3,27}
   + 2479.464805749394 R{3,28} + 1701.657935207958 R{3,29}
   + 2570.77527093461 R{3,30} + 1696.453108390341 R{3,31}
   + 2262.722535975792 R{3,32} + 2525.974560175233 R{3,33}
   + 1811.411911123448 R{3,34} + 2747.695746368858 R{3,35}
   + 681.1143299731084 R{4,0} + 1937.851922344408 R{4,1}
   + 2626.365434007818 R{4,2} - 110.311124685748 R{4,3}
   + 2109.508324718292 R{4,4} + 3182.725207418231 R{4,5}
   + 3628.448974802759 R{4,6} + 1480.246358282863 R{4,7}
   + 1089.805696962165 R{4,8} + 1136.866552758623 R{4,9}
   + 1041.821865212024 R{4,10} + 1691.006016204489 R{4,11}
   + 390.4544335228263 R{4,12} + 666.4883471715245 R{4,13}
   + 1144.209502833448 R{4,14} + 2143.889565720865 R{4,15}
   + 1173.587572841761 R{4,16} + 1665.945726131224 R{4,17}
   + 1235.44367166972 R{4,18} + 1098.553465618442 R{4,19}
   + 1359.751906801544 R{4,20} + 543.0861100342084 R{4,21}
   + 2001.705483664424 R{4,22} + 1855.408500087771 R{4,23}
   + 1939.060508856037 R{4,24} + 419.4475307945605 R{4,25}
   + 1096.706252641314 R{4,26} + 1264.105393425858 R{4,27}
   + 498.6417212694726 R{4,28} + 1365.795224182769 R{4,29}
   + 1235.422581723759 R{4,30} + 1927.874659189611 R{4,31}
   + 1006.333515205641 R{4,32} + 1301.621788027453 R{4,33}
   + 1157.003117633819 R{4,34} + 1465.617038529145 R{4,35}
   + 1081.768569774657 R{4,36} + 1985.632414229308 R{4,37}
   + 1503.504067773418 R{4,38} + 996.7956957004385 R{4,39}
   + 1925.506059427695 R{5,0} + 4101.768215333705 R{5,1}
   + 4101.768215333705 R{5,2} - 185.9792297999622 R{5,3}
   + 669.3580575198177 R{5,4} + 4434.624218507047 R{5,5}
   + 4463.509510412923 R{5,6} + 2814.851694735807 R{5,7}
   + 2317.340247238774 R{5,8} + 1340.016816589481 R{5,9}
   + 2074.669896202092 R{5,10} + 66.87180469359237 R{5,11}
   + 2020.27211930424 R{5,12} + 3072.224140111257 R{5,13}
   + 1062.710534872645 R{5,14} + 3028.537047279736 R{5,15}
   + 2599.755704299136 R{5,16} + 1470.604092173044 R{5,17}
   + 2906.362063253463 R{5,18} + 4377.101053629001 R{5,19}
   + 2710.843485652204 R{5,20} + 1741.354701059433 R{5,21}
   + 4121.718610465367 R{5,22} + 3286.714479508702 R{5,23}
   + 2735.263535035509 R{5,24} + 3031.597723951094 R{5,25}
   + 1187.86530104469 R{5,26} + 2280.119941857216 R{5,27}
   + 2176.255430611108 R{5,28} + 2440.826745953221 R{5,29}
   + 2866.867740118727 R{5,30} + 2788.678011900653 R{5,31}
   + 2480.09674656327 R{5,32} + 1946.77367089899 R{5,33}
   + 2330.085754308528 R{5,34} + 1960.610735168694 R{5,35}
   + 3506.223743594199 R{5,36} + 3163.730852246046 R{5,37}
   + 3019.950452457837 R{5,38} + 3126.338847659547 R{5,39}
   + 284.856825034505 R{6,0} + 285.8973374391785 R{6,1}
   + 995.0266735178386 R{6,2} - 151.6582656969574 R{6,3}
   + 578.3057555442031 R{6,4} + 1272.908265986084 R{6,5}
   + 1015.155349794983 R{6,6} + 296.6852150001255 R{6,7}
   + 26.15084199783252 R{6,8} + 131.5435092820052 R{6,9}
   + 226.4685302880082 R{6,10} + 253.8705804810315 R{6,11}
   + 529.0303159113416 R{6,12} + 471.2974459235793 R{6,13}
   + 1672.573031461379 R{6,14} + 465.6636438580188 R{6,15}
   + 635.3099333099168 R{6,16} + 447.8417113717127 R{6,17}
   + 1302.191766484651 R{6,18} + 872.3089842892127 R{6,19}
   + 878.44291178208 R{6,20}
Subject To
 R1_0: R{0,0} + R{0,1} + R{0,2} + R{0,3} + R{0,4} + R{0,5} + R{0,6}
   + R{0,7} + R{0,8} + R{0,9} + R{0,10} + R{0,11} + R{0,12} + R{0,13}
   + R{0,14} + R{0,15} + R{0,16} + R{0,17} + R{0,18} + R{0,19} + R{0,20}
   + R{0,21} + R{0,22} + R{0,23} + R{0,24} + R{0,25} + R{0,26} + R{0,27}
   + R{0,28} + R{0,29} + R{0,30} + R{0,31} + R{0,32} <= 1
 R1_1: R{1,0} + R{1,1} + R{1,2} + R{1,3} + R{1,4} + R{1,5} + R{1,6}
   + R{1,7} + R{1,8} + R{1,9} + R{1,10} + R{1,11} + R{1,12} + R{1,13}
   + R{1,14} + R{1,15} + R{1,16} + R{1,17} + R{1,18} + R{1,19} + R{1,20}
   + R{1,21} + R{1,22} + R{1,23} + R{1,24} + R{1,25} + R{1,26} + R{1,27}
   + R{1,28} + R{1,29} + R{1,30} + R{1,31} + R{1,32} + R{1,33} + R{1,34}
   + R{1,35} + R{1,36} + R{1,37} <= 1
 R1_2: R{2,0} + R{2,1} + R{2,2} + R{2,3} + R{2,4} + R{2,5} + R{2,6}
   + R{2,7} + R{2,8} + R{2,9} + R{2,10} + R{2,11} + R{2,12} + R{2,13}
   + R{2,14} + R{2,15} + R{2,16} + R{2,17} + R{2,18} + R{2,19} + R{2,20}
   <= 1
 R1_3: R{3,0} + R{3,1} + R{3,2} + R{3,3} + R{3,4} + R{3,5} + R{3,6}
   + R{3,7} + R{3,8} + R{3,9} + R{3,10} + R{3,11} + R{3,12} + R{3,13}
   + R{3,14} + R{3,15} + R{3,16} + R{3,17} + R{3,18} + R{3,19} + R{3,20}
   + R{3,21} + R{3,22} + R{3,23} + R{3,24} + R{3,25} + R{3,26} + R{3,27}
   + R{3,28} + R{3,29} + R{3,30} + R{3,31} + R{3,32} + R{3,33} + R{3,34}
   + R{3,35} <= 1
 R1_4: R{4,0} + R{4,1} + R{4,2} + R{4,3} + R{4,4} + R{4,5} + R{4,6}
   + R{4,7} + R{4,8} + R{4,9} + R{4,10} + R{4,11} + R{4,12} + R{4,13}
   + R{4,14} + R{4,15} + R{4,16} + R{4,17} + R{4,18} + R{4,19} + R{4,20}
   + R{4,21} + R{4,22} + R{4,23} + R{4,24} + R{4,25} + R{4,26} + R{4,27}
   + R{4,28} + R{4,29} + R{4,30} + R{4,31} + R{4,32} + R{4,33} + R{4,34}
   + R{4,35} + R{4,36} + R{4,37} + R{4,38} + R{4,39} <= 1
 R1_5: R{5,0} + R{5,1} + R{5,2} + R{5,3} + R{5,4} + R{5,5} + R{5,6}
   + R{5,7} + R{5,8} + R{5,9} + R{5,10} + R{5,11} + R{5,12} + R{5,13}
   + R{5,14} + R{5,15} + R{5,16} + R{5,17} + R{5,18} + R{5,19} + R{5,20}
   + R{5,21} + R{5,22} + R{5,23} + R{5,24} + R{5,25} + R{5,26} + R{5,27}
   + R{5,28} + R{5,29} + R{5,30} + R{5,31} + R{5,32} + R{5,33} + R{5,34}
   + R{5,35} + R{5,36} + R{5,37} + R{5,38} + R{5,39} <= 1
 R1_6: R{6,0} + R{6,1} + R{6,2} + R{6,3} + R{6,4} + R{6,5} + R{6,6}
   + R{6,7} + R{6,8} + R{6,9} + R{6,10} + R{6,11} + R{6,12} + R{6,13}
   + R{6,14} + R{6,15} + R{6,16} + R{6,17} + R{6,18} + R{6,19} + R{6,20}
   <= 1
 R2_0: 5 R{0,1} + 5 R{0,2} + 5 R{0,5} + 5 R{0,6} + 5 R{0,10} + 5 R{1,0}
   + 5 R{1,1} + 5 R{1,2} + 5 R{1,4} + 5 R{1,5} + 5 R{1,6} + 5 R{1,9}
   + 5 R{1,10} + 5 R{1,14} + 5 R{1,15} + 5 R{1,16} + 5 R{1,17} + 5 R{1,18}
   + 5 R{1,21} + 5 R{1,22} + 5 R{1,23} + 5 R{1,24} + 5 R{1,25} + 5 R{1,28}
   + 5 R{1,29} + 5 R{1,30} + 5 R{1,31} + 5 R{1,32} + 5 R{1,33} + 5 R{1,34}
   + 5 R{1,35} + 5 R{1,36} + 5 R{1,37} + 5 R{2,1} + 5 R{2,2} + 5 R{2,8}
   + 5 R{2,18} + 5 R{3,2} + 5 R{3,5} + 5 R{3,6} + 5 R{3,19} + 5 R{3,26}
   + 5 R{3,28} + 5 R{3,35} + 5 R{4,1} + 5 R{4,2} + 5 R{4,6} + 5 R{5,1}
   + 5 R{5,2} + 5 R{5,5} + 5 R{5,6} + 5 R{5,10} + 5 R{5,15} + 5 R{5,19}
   + 5 R{5,22} + 5 R{5,24} + 5 R{5,25} + 5 R{5,31} + 5 R{5,34} + 5 R{5,36}
   + 5 R{5,39} <= 5
 R2_1: 9 R{0,1} + 9 R{0,2} + 9 R{0,32} + 9 R{1,2} + 9 R{1,5} + 9 R{1,6}
   + 9 R{1,18} + 9 R{1,30} + 9 R{2,2} + 9 R{4,5} + 9 R{4,6} + 9 R{4,22}
   + 9 R{4,23} + 9 R{4,31} + 9 R{4,37} + 9 R{5,0} + 9 R{5,1} + 9 R{5,2}
   + 9 R{5,4} + 9 R{5,5} + 9 R{5,6} + 9 R{5,7} + 9 R{5,8} + 9 R{5,13}
   + 9 R{5,14} + 9 R{5,16} + 9 R{5,17} + 9 R{5,18} + 9 R{5,19} + 9 R{5,20}
   + 9 R{5,21} + 9 R{5,22} + 9 R{5,23} + 9 R{5,25} + 9 R{5,28} + 9 R{5,30}
   + 9 R{5,31} + 9 R{5,32} + 9 R{5,36} + 9 R{5,37} + 9 R{5,38} <= 9
 R2_2: <= 0
 R2_3: 5 R{1,0} + 5 R{1,1} + 5 R{1,5} + 5 R{1,6} + 5 R{1,7} + 5 R{1,9}
   + 5 R{1,11} + 5 R{1,12} + 5 R{1,13} + 5 R{1,18} + 5 R{1,19} + 5 R{1,20}
   + 5 R{1,22} + 5 R{1,23} + 5 R{1,24} + 5 R{1,25} + 5 R{1,26} + 5 R{1,27}
   + 5 R{1,28} + 5 R{1,32} + 5 R{1,33} + 5 R{1,34} + 5 R{1,35} + 5 R{1,36}
   + 2 R{1,37} + 5 R{3,13} + 5 R{4,8} + 5 R{4,11} + 5 R{4,19} + 5 R{5,4}
   + 5 R{5,5} + 5 R{5,7} + 5 R{5,9} + 5 R{5,13} + 5 R{5,15} + 5 R{5,16}
   + 5 R{5,18} + 5 R{5,19} + 5 R{5,20} + 5 R{5,22} + 5 R{5,23} + 5 R{5,24}
   + 5 R{5,37} <= 5
 R2_4: 13 R{1,4} + 13 R{1,5} + 13 R{1,6} + 13 R{1,8} + 13 R{1,17}
   + 13 R{1,23} + 13 R{1,30} + 13 R{1,34} + 13 R{1,36} + R{1,37}
   + 13 R{4,0} + 13 R{4,1} + 13 R{4,12} + 13 R{4,28} + 13 R{4,34} <= 13
 R2_5: 5 R{0,31} + 5 R{1,29} + 5 R{1,30} + 5 R{1,31} + 5 R{1,37} + 5 R{2,0}
   + 5 R{2,1} + 5 R{2,4} + 5 R{2,6} + 5 R{2,8} + 5 R{2,9} + 5 R{2,12}
   + 5 R{2,14} + 5 R{2,15} + 5 R{2,16} + 5 R{2,17} + 5 R{2,18} + 5 R{2,19}
   + 5 R{2,20} <= 5
 R2_6: <= 0
 R2_7: 8 R{0,6} + 8 R{0,9} + 8 R{0,32} + 8 R{1,9} + 8 R{1,18} + 8 R{1,24}
   + 8 R{1,30} + 8 R{1,32} + 8 R{1,33} + 8 R{1,36} + 8 R{2,16} + 8 R{3,5}
   + 8 R{3,6} + 8 R{3,8} + 8 R{3,9} + 8 R{3,11} + 8 R{3,12} + 8 R{3,13}
   + 8 R{3,16} + 8 R{3,18} + 8 R{3,20} + 8 R{3,22} + 8 R{3,24} + 8 R{3,25}
   + 8 R{3,30} + 8 R{3,32} + 8 R{3,33} + 8 R{3,34} + 8 R{4,0} + 8 R{4,1}
   + 8 R{4,2} + 8 R{4,12} + 8 R{4,28} + 8 R{4,34} + 4 R{5,5} + 4 R{5,6}
   + 8 R{5,8} + 8 R{5,12} + 8 R{5,13} + 8 R{5,22} + 8 R{5,24} + 8 R{5,27}
   + 8 R{5,33} + 8 R{5,39} + 8 R{6,4} + 8 R{6,5} + 8 R{6,14} + 8 R{6,18}
   <= 8
 R2_8: 9 R{1,4} + 9 R{1,5} + 9 R{1,6} + 9 R{1,7} + 9 R{1,9} + 9 R{1,14}
   + 9 R{1,18} + 9 R{1,24} + 9 R{1,33} + 9 R{3,5} + 9 R{3,6} + 9 R{3,7}
   + 9 R{3,11} + 9 R{3,16} + 9 R{3,20} + 9 R{3,22} + 9 R{3,30} + 9 R{3,33}
   + 9 R{4,25} + 9 R{5,0} + 9 R{5,1} + 9 R{5,2} + 9 R{5,5} + 9 R{5,6}
   + 9 R{5,7} + 9 R{5,8} + 9 R{5,10} + 9 R{5,12} + 9 R{5,15} + 9 R{5,16}
   + 9 R{5,19} + 9 R{5,20} + 9 R{5,22} + 9 R{5,23} + 9 R{5,24} + 9 R{5,25}
   + 9 R{5,26} + 9 R{5,27} + 9 R{5,28} + 9 R{5,29} + 9 R{5,30} + 9 R{5,31}
   + 9 R{5,32} + 9 R{5,34} + 9 R{5,35} + 9 R{5,36} + 9 R{5,37} + 9 R{5,39}
   <= 9
 R2_9: 12 R{0,12} + 12 R{0,23} + 12 R{0,24} + 12 R{0,25} + 12 R{0,28}
   + 12 R{1,4} + 12 R{1,5} + 12 R{1,6} + 12 R{1,8} + 12 R{1,9} + 12 R{1,10}
   + 12 R{1,13} + 12 R{1,14} + 12 R{1,17} + 12 R{1,18} + 12 R{1,19}
   + 12 R{1,20} + 12 R{1,23} + 12 R{1,24} + 12 R{1,25} + 12 R{1,29}
   + 12 R{1,30} + 12 R{1,31} + 12 R{1,33} + 12 R{1,34} + 12 R{1,36}
   + 12 R{2,9} + 12 R{2,16} + 12 R{2,17} + 12 R{2,19} + 12 R{3,15}
   + 12 R{3,27} + 12 R{4,0} + 12 R{4,1} + 12 R{4,11} + 12 R{4,12}
   + 12 R{4,17} + 12 R{4,20} + 12 R{4,27} + 12 R{4,28} + 12 R{4,30}
   + 12 R{4,33} + 12 R{4,35} + 12 R{4,36} + 12 R{4,38} + 12 R{4,39}
   + 12 R{5,18} + 12 R{5,37} + 12 R{5,38} + 12 R{6,10} + 12 R{6,11} <= 12
 R2_10: 5 R{1,0} + 5 R{1,1} + 5 R{1,2} + 5 R{1,4} + 5 R{1,5} + 5 R{1,6}
   + 5 R{1,7} + 5 R{1,8} + 5 R{1,9} + 5 R{1,10} + 5 R{1,14} + 5 R{1,15}
   + 5 R{1,16} + 5 R{1,17} + 5 R{1,18} + 5 R{1,21} + 5 R{1,24} + 5 R{1,28}
   + 5 R{1,29} + 5 R{1,30} + 5 R{1,31} + 5 R{1,32} + 5 R{1,33} + 5 R{1,34}
   + 5 R{1,35} + 5 R{1,36} + 5 R{1,37} + 5 R{3,5} + 5 R{3,6} + 5 R{3,9}
   + 5 R{3,12} + 5 R{3,14} + 5 R{3,15} + 5 R{3,18} + 5 R{3,20} + 5 R{3,21}
   + 5 R{3,29} + 5 R{3,30} + 5 R{4,9} + 5 R{4,31} + 5 R{5,7} + 5 R{5,13}
   + 5 R{5,19} + 5 R{5,20} + 5 R{5,23} + 5 R{5,25} + 5 R{5,32} + 5 R{5,36}
   + 5 R{6,14} <= 5
 R2_11: 14 R{0,1} + 14 R{0,2} + 14 R{0,6} + 14 R{0,13} + 14 R{0,20}
   + 14 R{0,25} + 14 R{1,2} + 14 R{1,4} + 14 R{1,5} + 14 R{1,6} + 14 R{1,8}
   + 14 R{1,9} + 14 R{1,14} + 14 R{1,18} + 14 R{1,20} + 14 R{1,23}
   + 14 R{1,24} + 14 R{1,25} + 14 R{1,29} + 14 R{1,30} + 14 R{1,31}
   + 14 R{1,33} + 14 R{1,34} + 14 R{1,36} + 9 R{1,37} + 14 R{3,5}
   + 14 R{3,6} + 14 R{3,18} + 14 R{3,27} + 9 R{3,31} + 9 R{3,34}
   + 14 R{3,35} + 14 R{4,2} + 9 R{4,21} + 14 R{5,0} + 14 R{5,1} + 14 R{5,2}
   + 14 R{5,5} + 14 R{5,6} + 14 R{5,9} + 14 R{5,13} + 9 R{5,15}
   + 14 R{5,18} + 9 R{5,19} + 14 R{5,21} + 9 R{5,22} + 9 R{5,23}
   + 14 R{5,24} + 14 R{5,25} + 14 R{5,27} + 14 R{5,29} + 9 R{5,34}
   + 9 R{5,35} + 9 R{5,36} + 14 R{5,37} + 14 R{5,38} + 14 R{5,39}
   + 14 R{6,16} + 14 R{6,20} <= 14
 R2_12: 13 R{0,4} + 13 R{0,5} + 13 R{0,16} + 13 R{0,19} + 13 R{0,21}
   + 13 R{0,24} + 13 R{0,25} + 13 R{1,18} + 13 R{2,13} + 13 R{3,0}
   + 13 R{3,1} + 13 R{3,2} + 10 R{3,5} + 10 R{3,6} + 10 R{3,9} + 10 R{3,11}
   + 10 R{3,12} + 13 R{3,13} + 13 R{3,14} + 13 R{3,16} + 10 R{3,18}
   + 13 R{3,19} + 10 R{3,20} + 13 R{3,21} + 13 R{3,22} + 10 R{3,25}
   + 13 R{3,28} + 13 R{3,29} + 10 R{3,30} + 13 R{3,34} + 13 R{3,35}
   + 13 R{4,5} + 13 R{4,6} + 13 R{4,11} + 13 R{4,16} + 13 R{4,19}
   + 13 R{4,24} + 13 R{4,30} + 10 R{5,5} + 10 R{5,6} + 6 R{5,15}
   + 6 R{5,19} + 11 R{5,20} + 13 R{5,22} + 6 R{5,23} + 13 R{5,24}
   + 11 R{5,25} + 11 R{5,31} + 6 R{5,37} + 13 R{6,14} + 13 R{6,18} <= 13
 R2_13: 8 R{0,0} + 8 R{0,1} + 8 R{0,2} + 8 R{0,18} + 8 R{0,26} + 8 R{0,30}
   + 8 R{0,31} + 8 R{0,32} + 8 R{2,15} + 8 R{3,4} + 8 R{3,5} + 8 R{3,6}
   + 8 R{3,9} + 8 R{3,11} + 8 R{3,12} + 8 R{3,13} + 8 R{3,14} + 8 R{3,16}
   + 8 R{3,18} + 8 R{3,19} + 8 R{3,20} + 8 R{3,21} + 8 R{3,22} + 8 R{3,23}
   + 8 R{3,24} + 8 R{3,25} + 8 R{3,26} + 8 R{3,28} + 8 R{3,29} + 8 R{3,32}
   + 8 R{3,35} + 8 R{5,27} <= 8
 R2_14: <= 0
 R2_15: 12 R{0,0} + 12 R{0,1} + 12 R{0,2} + 12 R{0,5} + 12 R{0,10}
   + 12 R{0,12} + 12 R{0,13} + 12 R{0,14} + 12 R{0,15} + 12 R{0,16}
   + 12 R{0,17} + 12 R{0,18} + 12 R{0,19} + 12 R{0,20} + 12 R{0,21}
   + 12 R{0,22} + 12 R{0,23} + 12 R{0,24} + 12 R{0,25} + 12 R{0,26}
   + 12 R{0,27} + 12 R{0,28} + 12 R{0,29} + 12 R{0,30} + 12 R{0,31}
   + 12 R{0,32} + R{1,36} + 12 R{3,15} + 12 R{3,17} + 12 R{4,17}
   + 12 R{4,22} + 12 R{4,23} + 12 R{4,30} + 12 R{6,4} + 12 R{6,5}
   + 12 R{6,13} + 12 R{6,14} + 12 R{6,17} <= 12
 R2_16: 5 R{2,12} + 5 R{2,19} + 5 R{2,20} + 5 R{3,0} + 5 R{3,1} + 5 R{3,2}
   + 5 R{3,9} + 5 R{3,12} + 5 R{3,13} + 5 R{3,14} + 5 R{3,28} + 5 R{3,30}
   + 5 R{3,32} + 5 R{3,33} + 5 R{4,4} + 5 R{4,5} + 5 R{4,6} + 5 R{4,7}
   + 5 R{4,9} + 5 R{4,10} + 5 R{4,13} + 5 R{4,14} + 5 R{4,15} + 5 R{4,17}
   + 5 R{4,24} + 5 R{4,29} + 5 R{4,34} <= 5
 R2_17: 11 R{0,6} + 11 R{0,8} + 11 R{0,17} + 11 R{1,0} + 11 R{1,1}
   + 11 R{1,4} + 11 R{1,5} + 11 R{1,6} + 11 R{1,14} + 11 R{1,15}
   + 11 R{1,16} + 11 R{1,17} + 11 R{1,18} + 11 R{1,22} + 11 R{1,23}
   + 11 R{1,25} + 11 R{1,27} + 11 R{1,28} + 11 R{1,29} + 11 R{1,30}
   + 11 R{1,31} + 11 R{1,32} + 11 R{1,33} + 11 R{1,34} + 11 R{1,36}
   + 11 R{1,37} + 10 R{2,2} + 11 R{2,6} + 11 R{2,14} + 11 R{2,20}
   + 3 R{3,5} + 3 R{3,6} + 11 R{3,15} + 11 R{3,17} + 11 R{4,7} + 11 R{4,14}
   + 11 R{4,18} + 11 R{4,24} + 11 R{4,26} + 11 R{4,27} + 11 R{4,32}
   + 11 R{4,33} + 11 R{4,35} + 11 R{4,38} + 11 R{5,5} + 11 R{5,6}
   + 11 R{5,8} + 11 R{5,18} + 11 R{5,19} + 11 R{5,23} + 11 R{5,25}
   + 11 R{5,26} + 11 R{5,27} + 11 R{5,37} + 11 R{5,38} + 11 R{5,39}
   + 11 R{6,7} + 11 R{6,12} + 11 R{6,20} <= 11
 R2_18: 6 R{1,4} + 6 R{1,5} + 6 R{1,6} + 6 R{1,8} + 6 R{1,17} + 6 R{1,23}
   + 6 R{1,34} + 6 R{1,36} + 6 R{4,17} + 6 R{5,0} + 6 R{5,1} + 6 R{5,2}
   + 6 R{5,5} + 6 R{5,6} + 6 R{5,7} + 6 R{5,8} + 6 R{5,9} + 6 R{5,12}
   + 6 R{5,13} + 6 R{5,15} + 6 R{5,17} + 6 R{5,19} + 6 R{5,22} + 6 R{5,23}
   + 6 R{5,24} + 6 R{5,25} + 6 R{5,26} + 6 R{5,27} + 6 R{5,29} + 6 R{5,31}
   + 6 R{5,33} + 6 R{5,34} + 6 R{5,35} + 6 R{5,36} + 6 R{5,37} + 6 R{5,39}
   <= 6
 R2_19: 8 R{0,1} + 8 R{0,2} + 8 R{0,7} + 8 R{0,10} + 8 R{0,32} + 8 R{1,2}
   + 8 R{1,7} + 8 R{3,0} + 8 R{3,1} + 8 R{3,2} + 8 R{3,7} + 8 R{3,15}
   + 8 R{3,17} + 8 R{3,19} + 8 R{4,14} + 8 R{4,15} + 8 R{4,18} + 8 R{4,26}
   + 8 R{4,27} + 8 R{5,5} + 8 R{5,6} + 8 R{5,7} + 8 R{5,12} + 8 R{5,13}
   + 8 R{5,15} + 8 R{5,16} + 8 R{5,18} + 8 R{5,19} + 8 R{5,20} + 8 R{5,22}
   + 8 R{5,23} + 8 R{5,24} + 8 R{5,27} + 8 R{5,30} + 8 R{5,32} + 8 R{5,33}
   + 8 R{5,35} + 8 R{5,36} + 8 R{5,37} + 8 R{5,38} + 8 R{5,39} + 8 R{6,4}
   + 8 R{6,5} + 8 R{6,6} + 8 R{6,13} <= 8
 R2_20: 10 R{0,0} + 7 R{0,1} + 7 R{0,2} + 10 R{0,4} + 10 R{0,5} + 10 R{0,6}
   + 7 R{0,10} + 10 R{0,29} + 10 R{1,1} + 7 R{1,2} + 10 R{1,28} + 10 R{2,2}
   + 10 R{3,5} + 10 R{3,6} + 10 R{3,9} + 10 R{3,12} + 10 R{3,13}
   + 10 R{3,18} + 10 R{3,20} + 10 R{3,21} + 10 R{3,25} + 10 R{3,28}
   + 10 R{3,29} + 10 R{3,30} + 10 R{3,31} + 10 R{3,32} + 10 R{3,33}
   + 10 R{3,35} + 10 R{4,2} + 6 R{4,5} + 6 R{4,6} + 10 R{4,7} + 10 R{4,11}
   + 7 R{4,15} + 10 R{4,22} + 10 R{4,24} + 10 R{4,31} + 10 R{4,33}
   + 10 R{4,35} + 10 R{4,37} + 10 R{4,38} + 10 R{5,1} + 10 R{5,2}
   + 10 R{5,10} + 10 R{5,29} <= 10
 R2_21: 8 R{0,11} + 8 R{1,4} + 8 R{1,5} + 8 R{1,8} + 8 R{1,9} + 8 R{1,10}
   + 8 R{1,14} + 8 R{1,17} + 8 R{1,18} + 8 R{1,23} + 8 R{1,25} + 8 R{1,32}
   + 8 R{1,33} + 8 R{1,36} + 8 R{2,8} + 8 R{3,9} + 8 R{3,15} + 8 R{3,17}
   + 8 R{3,25} + 8 R{4,9} + 8 R{4,10} + 8 R{5,0} + 8 R{5,1} + 8 R{5,2}
   + 8 R{5,9} + 8 R{5,10} + 8 R{5,11} + 8 R{5,20} + 8 R{5,21} + 8 R{5,22}
   + 8 R{5,23} + 8 R{5,25} + 8 R{5,26} + 8 R{5,29} + 8 R{5,31} + 8 R{5,34}
   + 8 R{5,36} + 8 R{5,37} + 8 R{5,39} + 8 R{6,8} + 8 R{6,9} + 8 R{6,14}
   + 8 R{6,18} <= 8
 R2_22: 11 R{0,25} + 11 R{0,30} + 11 R{0,31} + 4 R{1,4} + 4 R{1,5}
   + 4 R{1,6} + 11 R{1,9} + 11 R{1,10} + 11 R{1,13} + 4 R{1,14} + 4 R{1,15}
   + 11 R{1,16} + 4 R{1,17} + 4 R{1,18} + 11 R{1,21} + 4 R{1,23}
   + 11 R{1,24} + 4 R{1,25} + 4 R{1,29} + 11 R{1,30} + 4 R{1,31}
   + 4 R{1,32} + 4 R{1,33} + 4 R{1,34} + 10 R{1,35} + 4 R{1,36} + 4 R{1,37}
   + 11 R{2,0} + 10 R{2,1} + 11 R{2,6} + 11 R{2,8} + 11 R{2,12}
   + 11 R{2,15} + 11 R{2,18} + 11 R{3,25} + 11 R{5,8} + 11 R{5,15}
   + 11 R{5,24} + 4 R{5,27} + 11 R{5,31} + 4 R{5,37} + 4 R{5,39}
   + 11 R{6,11} <= 11
 R2_23: 14 R{0,10} + 14 R{0,26} + 14 R{0,28} + 14 R{0,29} + 14 R{1,0}
   + 14 R{1,1} + 14 R{1,13} + 14 R{1,15} + 14 R{1,17} + 14 R{1,19}
   + 14 R{1,22} + 14 R{1,27} + 14 R{1,28} + 14 R{1,35} + 14 R{2,8}
   + 14 R{3,12} + 14 R{3,14} + 14 R{3,15} + 14 R{3,17} + 14 R{3,21}
   + 14 R{3,24} + 14 R{4,4} + 14 R{4,5} + 14 R{4,6} + 14 R{4,8} + 14 R{4,9}
   + 14 R{4,13} + 14 R{4,15} + 14 R{4,16} + 14 R{4,17} + 14 R{4,18}
   + 14 R{4,19} + 14 R{4,22} + 14 R{4,23} + 14 R{4,24} + 14 R{4,25}
   + 14 R{4,29} + 14 R{4,32} + 14 R{4,34} + 14 R{5,10} + 14 R{5,20}
   + 6 R{5,32} + 14 R{5,33} + 14 R{6,14} + 14 R{6,18} + 14 R{6,19} <= 14
 R2_24: 7 R{0,4} + 7 R{0,5} + 7 R{0,7} + 7 R{0,21} + 7 R{1,16} + 7 R{1,23}
   + 7 R{1,25} + 7 R{1,27} + 7 R{1,28} + R{1,36} + 7 R{1,37} + 7 R{3,0}
   + 7 R{3,1} + 7 R{3,2} + 7 R{3,15} + 7 R{3,17} + 7 R{3,19} + 7 R{3,21}
   + 7 R{3,26} + 7 R{3,27} + 7 R{3,28} + 7 R{3,29} + 7 R{3,31} + 7 R{3,35}
   + 7 R{4,5} + 7 R{4,6} + 7 R{4,9} + 7 R{4,13} + 7 R{4,15} + 7 R{4,18}
   + 7 R{4,19} + 5 R{4,22} + 7 R{4,23} + 5 R{4,24} + 7 R{4,25} + 7 R{4,30}
   + 5 R{4,31} + 7 R{4,32} + 5 R{4,38} + 7 R{5,13} + 7 R{5,14} + 7 R{5,16}
   + 7 R{5,18} + 7 R{5,20} + 6 R{5,21} + 7 R{5,28} + 7 R{5,30} + 7 R{5,32}
   + 7 R{5,36} + 7 R{5,38} <= 7
 R2_25: 12 R{0,4} + 12 R{0,5} + 12 R{0,7} + 12 R{0,11} + 12 R{0,13}
   + 12 R{0,14} + 12 R{0,15} + 12 R{0,16} + 12 R{0,19} + 12 R{0,21}
   + 12 R{0,22} + 12 R{0,23} + 12 R{0,27} + 12 R{1,6} + 12 R{1,12}
   + 12 R{1,13} + 12 R{1,20} + 12 R{1,22} + 12 R{1,24} + 12 R{1,26}
   + 12 R{1,29} + 12 R{1,34} + 12 R{2,10} + 12 R{2,11} + 12 R{2,14}
   + 12 R{2,16} + 12 R{2,17} + 12 R{2,19} + 12 R{3,11} + 12 R{3,14}
   + 12 R{3,16} + 12 R{3,18} + 12 R{3,23} + 12 R{4,13} + 12 R{4,21}
   + 12 R{4,26} + 12 R{4,27} + 12 R{4,29} + 12 R{4,33} + 12 R{4,35}
   + 12 R{4,38} + 12 R{5,5} + 12 R{5,6} + 4 R{5,8} + 12 R{5,12}
   + 12 R{5,13} + 12 R{5,14} + 12 R{5,15} + 12 R{5,16} + 12 R{5,18}
   + 12 R{5,19} + 12 R{5,22} + 12 R{5,24} + 12 R{5,27} + 12 R{5,28}
   + 12 R{5,29} + 12 R{5,30} + 12 R{5,33} + 12 R{5,35} + 12 R{5,36}
   + 12 R{5,38} + 12 R{6,0} + 12 R{6,1} + 12 R{6,2} + 12 R{6,9}
   + 12 R{6,10} + 12 R{6,12} + 12 R{6,15} + 12 R{6,16} + 12 R{6,17}
   + 12 R{6,18} + 12 R{6,20} <= 12
 R2_26: 6 R{0,15} + 6 R{1,5} + 6 R{1,6} + 6 R{1,13} + 6 R{1,17} + 6 R{1,18}
   + 6 R{1,19} + 6 R{1,20} + 6 R{1,25} + 6 R{1,27} + 6 R{1,29} + 6 R{1,30}
   + 6 R{1,31} + 6 R{1,32} + 6 R{1,36} + 6 R{1,37} + 6 R{3,5} + 6 R{3,6}
   + 6 R{3,9} + 6 R{3,11} + 6 R{3,12} + 6 R{3,13} + 6 R{3,16} + 6 R{3,18}
   + 6 R{3,20} + 6 R{3,22} + 6 R{3,23} + 6 R{3,24} + 6 R{3,25} + 6 R{3,32}
   + 6 R{3,33} + 6 R{3,34} + 6 R{3,35} + 6 R{4,4} + 6 R{4,5} + 6 R{4,6}
   + 6 R{4,10} + 6 R{4,15} + 6 R{4,17} + 6 R{4,19} + 6 R{4,24} + 6 R{4,29}
   + 6 R{4,30} + 6 R{4,32} + 6 R{4,35} + 6 R{4,36} + 6 R{4,38} + 6 R{4,39}
   + 6 R{5,6} + 6 R{5,15} + 6 R{5,30} + 6 R{5,31} + 6 R{5,33} + 6 R{5,34}
   + 6 R{5,39} + 6 R{6,0} + 6 R{6,1} + 6 R{6,2} + 6 R{6,12} + 6 R{6,14}
   + 6 R{6,15} + 6 R{6,16} + 6 R{6,17} + 6 R{6,18} + 6 R{6,19} + 6 R{6,20}
   <= 6
 R2_27: <= 0
 R2_28: 7 R{0,13} + 7 R{0,19} + 7 R{0,20} + 7 R{1,10} + 7 R{1,17}
   + 7 R{1,26} + 7 R{1,33} + 7 R{1,37} + 7 R{2,0} + 7 R{2,1} + 7 R{2,2}
   + 7 R{2,4} + 7 R{2,5} + 7 R{2,6} + 7 R{2,7} + 7 R{2,9} + 7 R{2,10}
   + 7 R{2,11} + 7 R{2,12} + 7 R{2,13} + 7 R{2,14} + 7 R{2,15} + 7 R{2,16}
   + 7 R{2,17} + 7 R{2,18} + 7 R{2,19} + 7 R{2,20} + 7 R{3,10} + 7 R{3,16}
   + 7 R{3,22} + 7 R{3,23} + 7 R{3,24} + 7 R{3,29} + 7 R{3,34} + 7 R{4,8}
   + 7 R{4,10} + 7 R{4,20} + 7 R{4,30} + 7 R{6,14} + 7 R{6,18} <= 7
 R2_29: <= 0
 R2_30: <= 0
 R2_31: 5 R{0,1} + 5 R{0,2} + 5 R{0,6} + 5 R{0,20} + 5 R{1,2} + 5 R{1,4}
   + 5 R{1,5} + 5 R{1,6} + 5 R{1,8} + 5 R{1,10} + 5 R{1,19} + 5 R{1,34}
   + 5 R{2,7} + 5 R{3,5} + 5 R{3,6} + 5 R{3,8} + 5 R{3,9} + 5 R{3,11}
   + 5 R{3,12} + 5 R{3,17} + 5 R{3,18} + 5 R{3,20} + 5 R{3,25} + 5 R{3,30}
   + 5 R{4,0} + 5 R{4,1} + 5 R{4,2} + 5 R{4,8} + 5 R{4,20} + 5 R{4,37}
   + 5 R{5,1} + 5 R{5,2} + 5 R{5,5} + 5 R{5,6} + 5 R{5,7} + 5 R{5,9}
   + 5 R{5,15} + 5 R{5,19} + 5 R{5,21} + 5 R{5,23} + 5 R{5,29} + 5 R{5,37}
   <= 5
 R2_32: 10 R{0,15} + 10 R{0,21} + 10 R{2,0} + 10 R{2,1} + 10 R{2,4}
   + 10 R{2,5} + 10 R{2,6} + 10 R{2,8} + 10 R{2,9} + 10 R{2,12}
   + 10 R{2,14} + 10 R{2,15} + 10 R{2,16} + 10 R{2,17} + 10 R{2,19}
   + 10 R{2,20} + 10 R{3,13} + 10 R{3,15} + 10 R{3,17} + 9 R{3,20}
   + 10 R{3,21} + 10 R{3,27} + 10 R{3,28} + 10 R{3,29} + 10 R{3,30}
   + 10 R{3,31} + 10 R{3,32} + 10 R{3,33} + 10 R{3,35} + 10 R{4,7}
   + 10 R{4,14} + 10 R{4,39} + 10 R{5,24} + 10 R{5,27} + 10 R{5,39} <= 10
 R2_33: 12 R{0,29} + 12 R{1,7} + 12 R{1,12} + 12 R{1,26} + 12 R{2,17}
   + 12 R{3,0} + 12 R{3,1} + 12 R{3,2} + 12 R{3,5} + 12 R{3,6} + 12 R{3,7}
   + 12 R{3,10} + 12 R{3,11} + 12 R{3,12} + 12 R{3,13} + 12 R{3,14}
   + 12 R{3,16} + 12 R{3,18} + 12 R{3,19} + 12 R{3,20} + 12 R{3,21}
   + 12 R{3,22} + 12 R{3,23} + 12 R{3,24} + 12 R{3,26} + 12 R{3,27}
   + 12 R{3,28} + 12 R{3,29} + 12 R{3,30} + 12 R{3,31} + 12 R{3,32}
   + 12 R{3,33} + 12 R{3,34} + 12 R{3,35} + 10 R{4,4} + 10 R{4,5}
   + 10 R{4,6} + 12 R{4,11} + 12 R{4,15} + 12 R{4,16} + 12 R{4,17}
   + 12 R{4,19} + 12 R{4,20} + 12 R{4,22} + 12 R{4,23} + 12 R{4,29}
   + 12 R{4,30} + 12 R{4,31} + 12 R{4,34} + 12 R{4,36} + 12 R{4,37}
   + 12 R{4,39} + 12 R{5,7} + 12 R{5,17} + 12 R{5,20} + 12 R{5,32}
   + 12 R{6,6} + 12 R{6,14} + 12 R{6,19} <= 12
 R2_34: <= 0
 R2_35: 15 R{0,29} + 15 R{3,0} + 15 R{3,1} + 15 R{3,4} + 12 R{3,5}
   + 12 R{3,6} + 15 R{3,11} + 15 R{3,12} + 15 R{3,13} + 15 R{3,14}
   + 15 R{3,15} + 15 R{3,16} + 15 R{3,18} + 15 R{3,19} + 15 R{3,20}
   + 15 R{3,21} + 15 R{3,22} + 15 R{3,23} + 15 R{3,24} + 15 R{3,26}
   + 15 R{3,27} + 15 R{3,28} + 15 R{3,29} + 15 R{3,30} + 15 R{3,31}
   + 15 R{3,32} + 15 R{3,33} + 15 R{3,34} + 15 R{3,35} + 15 R{4,15}
   + 15 R{4,18} + 15 R{4,19} + 15 R{4,22} + 15 R{4,23} + 15 R{4,29}
   + 15 R{4,30} + 15 R{4,31} + 15 R{4,32} + 15 R{4,34} + 15 R{4,36}
   + 15 R{4,37} + 15 R{4,39} + 15 R{5,32} <= 15
 R2_36: 15 R{0,12} + 15 R{1,0} + 15 R{1,1} + 15 R{1,7} + 15 R{1,10}
   + 15 R{1,11} + 15 R{1,12} + 15 R{1,13} + 15 R{1,14} + 15 R{1,15}
   + 15 R{1,16} + 15 R{1,19} + 15 R{1,20} + 15 R{1,21} + 15 R{1,22}
   + 15 R{1,23} + 15 R{1,24} + 15 R{1,25} + 15 R{1,26} + 15 R{1,27}
   + 15 R{1,28} + 15 R{1,31} + 15 R{1,34} + 15 R{1,35} + 15 R{1,36}
   + 15 R{1,37} + 15 R{3,5} + 15 R{3,6} + 15 R{3,9} + 15 R{3,11}
   + 15 R{3,16} + 15 R{3,18} + 15 R{3,20} + 15 R{3,22} + 15 R{3,23}
   + 15 R{3,24} + 15 R{3,25} + 15 R{3,34} + 15 R{4,4} + 15 R{4,5}
   + 15 R{4,6} + 15 R{4,10} + 15 R{4,11} + 15 R{4,15} + 15 R{4,16}
   + 15 R{4,17} + 15 R{4,18} + 15 R{4,19} + 15 R{4,20} + 15 R{4,21}
   + 6 R{4,22} + 6 R{4,23} + 15 R{4,24} + 15 R{4,26} + 15 R{4,27}
   + 15 R{4,28} + 15 R{4,29} + 15 R{4,30} + 15 R{4,32} + 15 R{4,33}
   + 15 R{4,35} + 15 R{4,36} + 15 R{4,38} + 15 R{4,39} + 15 R{5,12}
   + 15 R{5,29} + 15 R{5,33} + 15 R{5,35} + 15 R{6,17} <= 16
 R2_37: 6 R{0,8} + 6 R{0,32} + 6 R{1,8} + 6 R{1,12} + 6 R{1,13} + 6 R{1,19}
   + 6 R{1,20} + 6 R{1,27} + 6 R{1,29} + 6 R{1,30} + 6 R{1,31} + 6 R{1,32}
   + 6 R{1,34} + 6 R{1,36} + 6 R{2,18} + 6 R{3,4} + 5 R{3,5} + 5 R{3,6}
   + 6 R{3,8} + 5 R{3,9} + 6 R{3,11} + 5 R{3,12} + 5 R{3,13} + 6 R{3,14}
   + 6 R{3,15} + 6 R{3,17} + 5 R{3,18} + 6 R{3,19} + 5 R{3,20} + 5 R{3,21}
   + 5 R{3,25} + 6 R{3,27} + 5 R{3,28} + 5 R{3,29} + 5 R{3,30} + 5 R{3,31}
   + 5 R{3,32} + 5 R{3,33} + 5 R{3,35} + 5 R{4,7} + 6 R{4,8} + 6 R{4,14}
   + 6 R{4,23} + 5 R{4,24} + 6 R{4,26} + 6 R{4,27} + 5 R{4,31} + 6 R{4,32}
   + 5 R{4,33} + 5 R{4,35} + 5 R{4,38} + 6 R{5,0} + 5 R{5,1} + 5 R{5,2}
   + 6 R{5,8} + 6 R{5,9} + 5 R{5,10} + 6 R{5,12} + 6 R{5,14} + 6 R{5,17}
   + 6 R{5,21} + 6 R{5,25} + 6 R{5,26} + 6 R{5,27} + 6 R{5,28} + 5 R{5,29}
   + 6 R{5,30} + 6 R{5,31} + 6 R{5,32} + 6 R{5,33} + 6 R{5,34} + 6 R{5,35}
   + 6 R{5,36} + 6 R{5,38} + 6 R{5,39} <= 6
 R2_38: 8 R{0,18} + 8 R{0,30} + 8 R{1,11} + 8 R{1,25} + 8 R{1,31}
   + 8 R{1,37} + 8 R{2,13} + 8 R{2,19} + 8 R{2,20} + 8 R{3,5} + 8 R{3,6}
   + 8 R{3,12} + 8 R{3,13} + 8 R{3,15} + 8 R{3,17} + 8 R{3,19} + 8 R{3,21}
   + 8 R{3,22} + 8 R{3,24} + 8 R{3,28} + 8 R{3,29} + 8 R{3,32} + 8 R{3,33}
   + 8 R{3,34} + 8 R{3,35} + 8 R{4,4} + 8 R{4,5} + 8 R{4,6} + 8 R{4,9}
   + 8 R{4,11} + 8 R{4,15} + 8 R{4,16} + 8 R{4,17} + 8 R{4,18} + 8 R{4,20}
   + 8 R{4,22} + 8 R{4,23} + 8 R{4,30} + 8 R{4,31} + 8 R{4,32} + 8 R{4,34}
   + 8 R{4,36} + 8 R{4,37} + 8 R{4,39} + 8 R{5,19} + 8 R{6,0} + 8 R{6,1}
   + 8 R{6,2} + 8 R{6,10} + 8 R{6,11} + 8 R{6,12} + 8 R{6,15} + 8 R{6,16}
   + 8 R{6,17} + 8 R{6,19} + 8 R{6,20} <= 8
 R2_39: <= 0
 R2_40: 14 R{0,0} + 10 R{0,1} + 10 R{0,2} + 14 R{0,8} + 14 R{0,10}
   + 14 R{0,16} + 14 R{0,20} + 14 R{0,23} + 14 R{0,24} + 14 R{0,26}
   + 14 R{0,27} + 14 R{0,28} + 14 R{0,29} + 14 R{0,30} + 14 R{0,31}
   + 7 R{0,32} + 14 R{1,4} + 14 R{1,5} + 14 R{1,6} + 14 R{1,8} + 14 R{1,9}
   + 14 R{1,15} + 14 R{1,16} + 14 R{1,17} + 14 R{1,18} + 14 R{1,19}
   + 14 R{1,20} + 14 R{1,23} + 14 R{1,24} + 14 R{1,25} + 14 R{1,29}
   + 14 R{1,30} + 14 R{1,31} + 14 R{1,32} + 14 R{1,34} + 14 R{1,35}
   + 14 R{1,36} + 14 R{1,37} + 14 R{2,13} + 14 R{2,18} + 14 R{3,32}
   + 14 R{3,33} + 14 R{4,9} + 14 R{4,13} + 14 R{4,16} <= 14
 R2_41: 5 R{0,0} + 5 R{0,1} + 5 R{0,2} + 5 R{0,5} + 5 R{0,6} + 5 R{0,18}
   + 5 R{0,26} + 5 R{0,32} + 5 R{1,1} + 5 R{1,2} + 5 R{1,35} + 5 R{2,1}
   + 5 R{2,2} + 5 R{2,5} + 5 R{4,1} + 5 R{4,2} + 5 R{4,4} + 5 R{4,5}
   + 5 R{4,6} + 5 R{5,1} + 5 R{5,2} + 5 R{5,5} + 5 R{5,6} + 5 R{5,13}
   + 5 R{5,16} + 5 R{5,18} + 5 R{5,19} + 5 R{5,22} + 5 R{5,28} + 5 R{5,30}
   + 5 R{5,38} + 5 R{6,2} + 5 R{6,5} <= 5
 R2_42: 4 R{0,27} + 4 R{1,9} + 4 R{1,17} + 4 R{1,28} + 4 R{1,29}
   + 4 R{1,31} + 4 R{2,11} + 4 R{3,11} + 4 R{3,15} + 4 R{3,23} + 4 R{3,24}
   + 4 R{3,25} + 4 R{3,26} + 4 R{3,27} + 4 R{3,32} + 4 R{3,33} + 4 R{4,7}
   + 4 R{4,12} + 4 R{4,18} + 4 R{4,28} + 4 R{5,0} + 4 R{5,1} + 4 R{5,2}
   + 4 R{5,4} + 4 R{5,7} + R{5,8} + 4 R{5,9} + 4 R{5,10} + R{5,12}
   + 4 R{5,13} + 4 R{5,14} + 4 R{5,15} + 4 R{5,16} + 4 R{5,17} + 4 R{5,18}
   + 4 R{5,19} + 4 R{5,20} + 4 R{5,21} + R{5,22} + 4 R{5,23} + R{5,24}
   + 4 R{5,25} + 4 R{5,26} + R{5,27} + 4 R{5,28} + 4 R{5,29} + 4 R{5,30}
   + 4 R{5,31} + 4 R{5,32} + R{5,33} + 4 R{5,34} + 4 R{5,35} + 4 R{5,36}
   + 4 R{5,37} + 4 R{5,38} + R{5,39} + 4 R{6,13} <= 4
 R2_43: <= 0
 R2_44: 12 R{1,5} + 12 R{1,6} + 12 R{1,9} + 12 R{1,14} + 12 R{1,15}
   + 12 R{1,17} + 12 R{1,21} + 12 R{1,23} + 12 R{1,25} + 12 R{1,26}
   + 12 R{1,33} + 12 R{1,34} + 7 R{1,36} + 12 R{1,37} + 12 R{3,18}
   + 12 R{3,20} + 12 R{3,23} + 12 R{3,30} + 12 R{5,0} + 12 R{5,1}
   + 12 R{5,2} + 12 R{5,4} + 11 R{5,5} + 11 R{5,6} + 12 R{5,7} + 7 R{5,8}
   + 12 R{5,10} + 12 R{5,11} + 7 R{5,12} + 12 R{5,13} + 12 R{5,15}
   + 12 R{5,16} + 12 R{5,17} + 12 R{5,21} + 7 R{5,22} + 12 R{5,23}
   + 7 R{5,24} + 12 R{5,25} + 12 R{5,26} + 7 R{5,27} + 12 R{5,28}
   + 12 R{5,29} + 12 R{5,30} + 12 R{5,31} + 7 R{5,33} + 12 R{5,34}
   + 12 R{5,35} + 12 R{5,36} + 12 R{5,37} + 12 R{5,39} <= 12
 R2_45: 6 R{0,22} + 6 R{1,11} + 6 R{1,16} + 6 R{1,21} + 6 R{1,32}
   + 6 R{1,37} + 6 R{2,6} + 6 R{3,31} + 6 R{3,34} + 6 R{4,4} + 6 R{4,5}
   + 6 R{4,6} + 6 R{4,7} + 6 R{4,8} + 6 R{4,9} + 6 R{4,10} + 6 R{4,16}
   + 6 R{4,21} + 6 R{4,23} + 6 R{4,24} + 6 R{4,29} + 6 R{5,5} + 6 R{5,6}
   + 6 R{5,7} + 6 R{5,8} + 6 R{5,12} + 6 R{5,15} + 6 R{5,19} + 6 R{5,20}
   + 6 R{5,22} + 6 R{5,23} + 6 R{5,32} + 6 R{5,33} + 6 R{5,34} + 6 R{5,35}
   + 6 R{5,36} + 6 R{6,6} + 6 R{6,7} + 6 R{6,14} + 6 R{6,18} <= 6
 R2_46: 6 R{0,10} + 6 R{0,32} + 6 R{1,8} + 6 R{1,17} + 6 R{1,21}
   + 6 R{1,22} + 6 R{1,23} + 6 R{1,25} + 6 R{1,30} + 6 R{1,36} + 6 R{1,37}
   + 6 R{3,5} + 6 R{3,6} + 6 R{3,9} + 6 R{3,11} + 6 R{3,12} + 6 R{3,13}
   + 6 R{3,14} + 6 R{3,16} + 6 R{3,17} + 6 R{3,18} + 6 R{3,19} + 6 R{3,20}
   + 6 R{3,21} + 6 R{3,22} + 6 R{3,24} + 6 R{3,26} + 6 R{3,28} + 6 R{3,30}
   + 6 R{3,32} + 6 R{3,33} + 6 R{3,34} + 6 R{3,35} + 6 R{4,4} + 6 R{4,5}
   + 6 R{4,9} + 6 R{4,10} + 6 R{4,11} + 6 R{4,13} + 6 R{4,17} + 6 R{4,20}
   + 6 R{4,36} + 6 R{5,8} + 6 R{5,12} + 6 R{5,13} + 6 R{5,14} + 6 R{5,16}
   + 6 R{5,18} + 6 R{5,23} + 6 R{5,25} + 6 R{5,28} + 6 R{5,30} + 6 R{5,31}
   + 6 R{5,34} + 6 R{5,36} + 6 R{5,38} + 6 R{6,15} <= 6
Bounds
Binaries
 R{0,0} R{0,1} R{0,2} R{0,3} R{0,4} R{0,5} R{0,6} R{0,7} R{0,8} R{0,9}
 R{0,10} R{0,11} R{0,12} R{0,13} R{0,14} R{0,15} R{0,16} R{0,17} R{0,18}
 R{0,19} R{0,20} R{0,21} R{0,22} R{0,23} R{0,24} R{0,25} R{0,26} R{0,27}
 R{0,28} R{0,29} R{0,30} R{0,31} R{0,32} R{1,0} R{1,1} R{1,2} R{1,3} R{1,4}
 R{1,5} R{1,6} R{1,7} R{1,8} R{1,9} R{1,10} R{1,11} R{1,12} R{1,13} R{1,14}
 R{1,15} R{1,16} R{1,17} R{1,18} R{1,19} R{1,20} R{1,21} R{1,22} R{1,23}
 R{1,24} R{1,25} R{1,26} R{1,27} R{1,28} R{1,29} R{1,30} R{1,31} R{1,32}
 R{1,33} R{1,34} R{1,35} R{1,36} R{1,37} R{2,0} R{2,1} R{2,2} R{2,3} R{2,4}
 R{2,5} R{2,6} R{2,7} R{2,8} R{2,9} R{2,10} R{2,11} R{2,12} R{2,13} R{2,14}
 R{2,15} R{2,16} R{2,17} R{2,18} R{2,19} R{2,20} R{3,0} R{3,1} R{3,2}
 R{3,3} R{3,4} R{3,5} R{3,6} R{3,7} R{3,8} R{3,9} R{3,10} R{3,11} R{3,12}
 R{3,13} R{3,14} R{3,15} R{3,16} R{3,17} R{3,18} R{3,19} R{3,20} R{3,21}
 R{3,22} R{3,23} R{3,24} R{3,25} R{3,26} R{3,27} R{3,28} R{3,29} R{3,30}
 R{3,31} R{3,32} R{3,33} R{3,34} R{3,35} R{4,0} R{4,1} R{4,2} R{4,3} R{4,4}
 R{4,5} R{4,6} R{4,7} R{4,8} R{4,9} R{4,10} R{4,11} R{4,12} R{4,13} R{4,14}
 R{4,15} R{4,16} R{4,17} R{4,18} R{4,19} R{4,20} R{4,21} R{4,22} R{4,23}
 R{4,24} R{4,25} R{4,26} R{4,27} R{4,28} R{4,29} R{4,30} R{4,31} R{4,32}
 R{4,33} R{4,34} R{4,35} R{4,36} R{4,37} R{4,38} R{4,39} R{5,0} R{5,1}
 R{5,2} R{5,3} R{5,4} R{5,5} R{5,6} R{5,7} R{5,8} R{5,9} R{5,10} R{5,11}
 R{5,12} R{5,13} R{5,14} R{5,15} R{5,16} R{5,17} R{5,18} R{5,19} R{5,20}
 R{5,21} R{5,22} R{5,23} R{5,24} R{5,25} R{5,26} R{5,27} R{5,28} R{5,29}
 R{5,30} R{5,31} R{5,32} R{5,33} R{5,34} R{5,35} R{5,36} R{5,37} R{5,38}
 R{5,39} R{6,0} R{6,1} R{6,2} R{6,3} R{6,4} R{6,5} R{6,6} R{6,7} R{6,8}
 R{6,9} R{6,10} R{6,11} R{6,12} R{6,13} R{6,14} R{6,15} R{6,16} R{6,17}
 R{6,18} R{6,19} R{6,20}
End
